<?xml version = "1.0" standalone="yes"?>
<!-- This file has been generated by DOcplex version 2.23.222  -->
<CPLEXSolution version="1.0">
 <header
   problemName="CVRP"
   objectiveValue="19415.5"
  />
 <variables>
  <variable name="x_0_1" index="0" value="1.00000"/>
  <variable name="x_0_2" index="1" value="1.00000"/>
  <variable name="x_0_4" index="3" value="1.00000"/>
  <variable name="x_0_6" index="5" value="1.00000"/>
  <variable name="x_0_9" index="8" value="1.00000"/>
  <variable name="x_0_11" index="10" value="1.00000"/>
  <variable name="x_0_14" index="13" value="1.00000"/>
  <variable name="x_0_15" index="14" value="1.00000"/>
  <variable name="x_0_16" index="15" value="1.00000"/>
  <variable name="x_0_18" index="17" value="1.00000"/>
  <variable name="x_0_21" index="20" value="1.00000"/>
  <variable name="x_0_22" index="21" value="1.00000"/>
  <variable name="x_0_23" index="22" value="1.00000"/>
  <variable name="x_0_25" index="24" value="1.00000"/>
  <variable name="x_1_17" index="41" value="1.00000"/>
  <variable name="x_2_7" index="56" value="1.00000"/>
  <variable name="x_3_0" index="75" value="1.00000"/>
  <variable name="x_4_10" index="109" value="1.00000"/>
  <variable name="x_5_12" index="136" value="1.00000"/>
  <variable name="x_6_8" index="157" value="1.00000"/>
  <variable name="x_7_0" index="175" value="1.00000"/>
  <variable name="x_8_0" index="200" value="1.00000"/>
  <variable name="x_9_5" index="230" value="1.00000"/>
  <variable name="x_10_0" index="250" value="1.00000"/>
  <variable name="x_11_3" index="278" value="1.00000"/>
  <variable name="x_12_0" index="300" value="1.00000"/>
  <variable name="x_13_0" index="325" value="1.00000"/>
  <variable name="x_14_0" index="350" value="1.00000"/>
  <variable name="x_15_0" index="375" value="1.00000"/>
  <variable name="x_16_19" index="418" value="1.00000"/>
  <variable name="x_17_0" index="425" value="1.00000"/>
  <variable name="x_18_13" index="463" value="1.00000"/>
  <variable name="x_19_0" index="475" value="1.00000"/>
  <variable name="x_20_24" index="523" value="1.00000"/>
  <variable name="x_21_0" index="525" value="1.00000"/>
  <variable name="x_22_0" index="550" value="1.00000"/>
  <variable name="x_23_20" index="595" value="1.00000"/>
  <variable name="x_24_0" index="600" value="1.00000"/>
  <variable name="x_25_0" index="625" value="1.00000"/>
  <variable name="u_1" index="650" value="38.00000"/>
  <variable name="u_2" index="651" value="26.00000"/>
  <variable name="u_3" index="652" value="50.00000"/>
  <variable name="u_4" index="653" value="13.00000"/>
  <variable name="u_5" index="654" value="34.00000"/>
  <variable name="u_6" index="655" value="20.00000"/>
  <variable name="u_7" index="656" value="43.00000"/>
  <variable name="u_8" index="657" value="45.00000"/>
  <variable name="u_9" index="658" value="16.00000"/>
  <variable name="u_10" index="659" value="50.00000"/>
  <variable name="u_11" index="660" value="1.00000"/>
  <variable name="u_12" index="661" value="50.00000"/>
  <variable name="u_13" index="662" value="50.00000"/>
  <variable name="u_14" index="663" value="44.00000"/>
  <variable name="u_15" index="664" value="46.00000"/>
  <variable name="u_16" index="665" value="26.00000"/>
  <variable name="u_17" index="666" value="50.00000"/>
  <variable name="u_18" index="667" value="32.00000"/>
  <variable name="u_19" index="668" value="48.00000"/>
  <variable name="u_20" index="669" value="31.00000"/>
  <variable name="u_21" index="670" value="50.00000"/>
  <variable name="u_22" index="671" value="42.00000"/>
  <variable name="u_23" index="672" value="27.00000"/>
  <variable name="u_24" index="673" value="49.00000"/>
  <variable name="u_25" index="674" value="50.00000"/>
 </variables>
</CPLEXSolution>
